<instance format="XCSP3" type="CSP">
  <variables>
    <array id="x" note="x represents the hexagon; on row x[i], only the first n - |n/2 - i| cells are useful (here, n = 15)." size="[15][15]"> 6..174 </array>
  </variables>
  <constraints>
    <allDifferent> x[][0] x[][1] x[][2] x[][3] x[][4] x[][5] x[][6] x[][7] x[1..2][8] x[2][9] x[3][8..10] x[4][8..11] x[5][8..12] x[6][8..13] x[7][8..14] x[8][8..13] x[9][8..12] x[10][8..11] x[11][8..10] x[12][8..9] x[13][8] </allDifferent>
    <group class="rows" note="All rows sum to the magic value">
      <sum>
        <list> %... </list>
        <condition> (eq,1014) </condition>
      </sum>
      <args> x[0][0..7] </args>
      <args> x[1][0..8] </args>
      <args> x[2][0..9] </args>
      <args> x[3][0..10] </args>
      <args> x[4][0..11] </args>
      <args> x[5][0..12] </args>
      <args> x[6][0..13] </args>
      <args> x[7][] </args>
      <args> x[8][0..13] </args>
      <args> x[9][0..12] </args>
      <args> x[10][0..11] </args>
      <args> x[11][0..10] </args>
      <args> x[12][0..9] </args>
      <args> x[13][0..8] </args>
      <args> x[14][0..7] </args>
    </group>
    <group class="rightDiagonals" note="All right-sloping diagonals sum to the magic value">
      <sum>
        <list> %... </list>
        <condition> (eq,1014) </condition>
      </sum>
      <args> x[7..14][0] </args>
      <args> x[6][0] x[7..14][1] </args>
      <args> x[5][0] x[6][1] x[7..14][2] </args>
      <args> x[4][0] x[5][1] x[6][2] x[7..14][3] </args>
      <args> x[3][0] x[4][1] x[5][2] x[6][3] x[7..14][4] </args>
      <args> x[2][0] x[3][1] x[4][2] x[5][3] x[6][4] x[7..14][5] </args>
      <args> x[1][0] x[2][1] x[3][2] x[4][3] x[5][4] x[6][5] x[7..14][6] </args>
      <args> x[0][0] x[1][1] x[2][2] x[3][3] x[4][4] x[5][5] x[6][6] x[7..14][7] </args>
      <args> x[0][1] x[1][2] x[2][3] x[3][4] x[4][5] x[5][6] x[6][7] x[7..13][8] </args>
      <args> x[0][2] x[1][3] x[2][4] x[3][5] x[4][6] x[5][7] x[6][8] x[7..12][9] </args>
      <args> x[0][3] x[1][4] x[2][5] x[3][6] x[4][7] x[5][8] x[6][9] x[7..11][10] </args>
      <args> x[0][4] x[1][5] x[2][6] x[3][7] x[4][8] x[5][9] x[6][10] x[7..10][11] </args>
      <args> x[0][5] x[1][6] x[2][7] x[3][8] x[4][9] x[5][10] x[6][11] x[7..9][12] </args>
      <args> x[0][6] x[1][7] x[2][8] x[3][9] x[4][10] x[5][11] x[6][12] x[7..8][13] </args>
      <args> x[0][7] x[1][8] x[2][9] x[3][10] x[4][11] x[5][12] x[6][13] x[7][14] </args>
    </group>
    <group class="leftDiagonals" note="All left-sloping diagonals sum to the magic value">
      <sum>
        <list> %... </list>
        <condition> (eq,1014) </condition>
      </sum>
      <args> x[0..7][0] </args>
      <args> x[0..7][1] x[8][0] </args>
      <args> x[0..7][2] x[8][1] x[9][0] </args>
      <args> x[0..7][3] x[8][2] x[9][1] x[10][0] </args>
      <args> x[0..7][4] x[8][3] x[9][2] x[10][1] x[11][0] </args>
      <args> x[0..7][5] x[8][4] x[9][3] x[10][2] x[11][1] x[12][0] </args>
      <args> x[0..7][6] x[8][5] x[9][4] x[10][3] x[11][2] x[12][1] x[13][0] </args>
      <args> x[0..7][7] x[8][6] x[9][5] x[10][4] x[11][3] x[12][2] x[13][1] x[14][0] </args>
      <args> x[1..7][8] x[8][7] x[9][6] x[10][5] x[11][4] x[12][3] x[13][2] x[14][1] </args>
      <args> x[2..7][9] x[8][8] x[9][7] x[10][6] x[11][5] x[12][4] x[13][3] x[14][2] </args>
      <args> x[3..7][10] x[8][9] x[9][8] x[10][7] x[11][6] x[12][5] x[13][4] x[14][3] </args>
      <args> x[4..7][11] x[8][10] x[9][9] x[10][8] x[11][7] x[12][6] x[13][5] x[14][4] </args>
      <args> x[5..7][12] x[8][11] x[9][10] x[10][9] x[11][8] x[12][7] x[13][6] x[14][5] </args>
      <args> x[6..7][13] x[8][12] x[9][11] x[10][10] x[11][9] x[12][8] x[13][7] x[14][6] </args>
      <args> x[7][14] x[8][13] x[9][12] x[10][11] x[11][10] x[12][9] x[13][8] x[14][7] </args>
    </group>
    <group class="symmetryBreaking">
      <intension> lt(%0,%1) </intension>
      <args> x[0][0] x[0][7] </args>
      <args> x[0][0] x[7][14] </args>
      <args> x[0][0] x[14][7] </args>
      <args> x[0][0] x[14][0] </args>
      <args> x[0][0] x[7][0] </args>
      <args> x[0][7] x[7][0] </args>
    </group>
  </constraints>
</instance>
